NAME : X-n783-k48
COMMENT : "Generated by Uchoa, Pecin, Pessoa, Poggi, Subramanian, and Vidal (2013)"
TYPE : CVRP
DIMENSION : 783
EDGE_WEIGHT_TYPE : EUC_2D
CAPACITY : 832
NODE_COORD_SECTION
1 909 919
2 878 721
3 969 85
4 591 195
5 955 148
6 587 903
7 994 792
8 625 129
9 544 703
10 461 167
11 37 644
12 615 22
13 773 788
14 384 364
15 51 291
16 109 732
17 570 124
18 692 985
19 62 150
20 358 5
21 188 450
22 674 658
23 676 904
24 815 984
25 710 16
26 74 658
27 576 1000
28 636 695
29 547 92
30 587 397
31 26 150
32 182 561
33 938 462
34 362 928
35 366 835
36 516 892
37 448 923
38 501 445
39 513 799
40 905 388
41 474 791
42 560 782
43 465 552
44 315 645
45 738 396
46 45 915
47 797 871
48 922 643
49 793 586
50 921 458
51 160 295
52 598 257
53 516 221
54 99 169
55 788 634
56 425 751
57 616 680
58 949 444
59 987 459
60 182 279
61 127 354
62 791 822
63 645 609
64 857 386
65 917 154
66 398 480
67 729 688
68 134 510
69 172 2
70 499 737
71 780 565
72 908 477
73 917 341
74 272 553
75 421 876
76 770 2
77 497 623
78 853 27
79 853 521
80 519 196
81 90 822
82 827 901
83 350 168
84 656 56
85 199 924
86 732 55
87 772 748
88 884 973
89 158 430
90 563 13
91 50 959
92 609 223
93 628 860
94 264 436
95 699 764
96 441 479
97 95 246
98 236 627
99 307 893
100 695 302
101 378 639
102 830 30
103 44 339
104 885 644
105 122 603
106 850 732
107 155 865
108 230 346
109 300 719
110 55 954
111 467 494
112 153 641
113 713 82
114 659 564
115 881 18
116 781 654
117 490 806
118 823 569
119 878 496
120 441 898
121 589 516
122 165 614
123 17 749
124 164 778
125 296 858
126 258 488
127 437 866
128 187 88
129 725 988
130 125 619
131 352 701
132 447 517
133 316 80
134 743 575
135 555 373
136 84 140
137 341 827
138 541 567
139 919 768
140 945 924
141 397 932
142 905 944
143 892 37
144 74 227
145 911 617
146 668 697
147 1 96
148 223 299
149 637 118
150 622 958
151 356 127
152 347 777
153 157 190
154 8 497
155 138 78
156 100 192
157 384 598
158 23 228
159 110 163
160 345 464
161 53 628
162 316 705
163 112 361
164 642 405
165 235 578
166 489 621
167 563 916
168 759 215
169 822 262
170 597 310
171 960 837
172 164 988
173 37 513
174 648 247
175 375 402
176 531 205
177 935 676
178 103 549
179 964 651
180 233 241
181 891 112
182 378 472
183 457 893
184 852 861
185 113 701
186 340 913
187 662 198
188 667 718
189 140 332
190 809 908
191 968 908
192 163 857
193 333 418
194 59 136
195 839 123
196 529 215
197 385 380
198 319 417
199 318 216
200 156 119
201 816 160
202 267 210
203 528 320
204 138 787
205 473 713
206 537 114
207 168 838
208 774 825
209 32 510
210 216 372
211 16 935
212 60 733
213 500 37
214 343 363
215 429 41
216 205 398
217 708 298
218 411 109
219 840 359
220 112 603
221 816 310
222 865 775
223 259 348
224 893 516
225 814 607
226 605 162
227 781 239
228 359 199
229 16 739
230 482 214
231 70 526
232 528 103
233 572 770
234 802 517
235 876 469
236 118 571
237 952 781
238 823 795
239 522 595
240 52 336
241 456 367
242 255 413
243 410 194
244 956 21
245 717 142
246 766 880
247 524 825
248 657 640
249 189 232
250 471 339
251 920 809
252 688 98
253 660 781
254 441 81
255 236 735
256 784 692
257 743 446
258 201 32
259 188 957
260 381 605
261 380 904
262 227 263
263 69 94
264 123 416
265 341 341
266 450 482
267 251 533
268 352 591
269 724 967
270 753 539
271 684 924
272 617 989
273 455 500
274 472 926
275 395 683
276 167 357
277 789 678
278 897 272
279 991 492
280 457 837
281 809 754
282 770 852
283 153 799
284 643 455
285 924 995
286 788 75
287 147 318
288 85 634
289 373 184
290 99 998
291 312 527
292 846 684
293 725 123
294 806 813
295 566 172
296 191 307
297 373 125
298 463 353
299 906 762
300 91 96
301 40 521
302 579 597
303 907 73
304 718 33
305 279 156
306 114 156
307 220 648
308 948 992
309 969 895
310 986 791
311 78 292
312 857 236
313 816 111
314 559 896
315 791 579
316 228 922
317 856 201
318 155 8
319 243 347
320 48 593
321 954 72
322 549 308
323 401 200
324 2 686
325 301 649
326 467 112
327 810 8
328 984 28
329 918 370
330 89 382
331 88 406
332 586 337
333 151 693
334 550 217
335 438 295
336 606 719
337 178 588
338 434 358
339 136 341
340 544 174
341 504 41
342 282 685
343 39 476
344 104 90
345 460 557
346 86 722
347 80 399
348 694 749
349 707 652
350 794 129
351 774 72
352 922 819
353 735 359
354 801 212
355 707 226
356 102 861
357 358 730
358 462 414
359 49 853
360 750 829
361 224 328
362 581 819
363 49 715
364 84 563
365 305 734
366 917 652
367 530 838
368 529 296
369 403 43
370 681 779
371 393 11
372 208 154
373 646 369
374 37 206
375 122 294
376 451 649
377 993 339
378 604 580
379 274 509
380 289 185
381 728 595
382 952 690
383 989 745
384 958 560
385 966 296
386 104 963
387 478 854
388 394 459
389 147 617
390 39 967
391 537 957
392 740 958
393 544 247
394 186 913
395 38 939
396 839 23
397 754 893
398 930 149
399 430 951
400 739 15
401 202 774
402 104 669
403 241 910
404 189 181
405 645 128
406 500 603
407 577 997
408 146 161
409 662 708
410 360 721
411 622 159
412 264 483
413 166 281
414 881 938
415 137 613
416 403 69
417 897 132
418 710 807
419 965 334
420 127 729
421 918 559
422 450 19
423 522 569
424 202 666
425 127 378
426 156 913
427 306 328
428 97 971
429 747 419
430 838 961
431 391 886
432 484 126
433 828 28
434 954 279
435 930 285
436 739 507
437 750 567
438 921 125
439 654 832
440 440 878
441 720 914
442 606 394
443 372 600
444 869 892
445 274 961
446 831 124
447 471 928
448 511 594
449 778 117
450 867 996
451 417 918
452 554 923
453 920 808
454 944 824
455 254 941
456 389 203
457 222 972
458 741 70
459 101 132
460 110 652
461 533 564
462 891 336
463 661 893
464 15 879
465 527 56
466 481 860
467 709 388
468 105 381
469 210 937
470 550 23
471 603 51
472 582 48
473 415 206
474 591 850
475 776 80
476 354 660
477 301 884
478 50 500
479 240 938
480 530 386
481 859 502
482 826 779
483 86 854
484 923 289
485 403 612
486 771 629
487 983 321
488 550 820
489 80 276
490 189 636
491 676 601
492 129 319
493 363 577
494 340 524
495 490 220
496 584 523
497 553 110
498 935 660
499 830 469
500 539 52
501 278 487
502 637 548
503 674 905
504 823 923
505 999 837
506 565 337
507 82 851
508 969 38
509 498 300
510 791 314
511 693 895
512 710 695
513 390 537
514 837 407
515 220 391
516 484 78
517 618 221
518 180 686
519 959 960
520 934 765
521 951 543
522 752 859
523 278 986
524 402 222
525 487 708
526 434 776
527 129 119
528 438 308
529 153 438
530 564 929
531 541 777
532 290 772
533 202 468
534 432 949
535 117 642
536 413 752
537 719 52
538 779 106
539 543 161
540 963 277
541 112 459
542 301 817
543 80 48
544 300 770
545 622 470
546 148 130
547 70 782
548 488 540
549 814 887
550 423 243
551 431 107
552 792 289
553 84 21
554 679 989
555 159 535
556 180 610
557 155 207
558 424 341
559 829 839
560 828 485
561 579 290
562 621 918
563 92 563
564 609 789
565 233 130
566 184 475
567 182 513
568 601 785
569 828 106
570 482 409
571 407 261
572 587 627
573 396 611
574 833 257
575 653 648
576 552 862
577 804 553
578 12 198
579 887 275
580 183 925
581 242 857
582 749 551
583 651 13
584 373 643
585 731 963
586 219 275
587 568 499
588 714 734
589 617 325
590 560 470
591 837 631
592 4 304
593 79 917
594 355 877
595 735 76
596 745 354
597 621 723
598 145 377
599 119 768
600 638 271
601 574 247
602 924 493
603 924 402
604 91 336
605 599 6
606 635 887
607 660 944
608 716 219
609 186 35
610 679 861
611 919 121
612 822 482
613 151 384
614 407 860
615 869 930
616 928 75
617 139 615
618 625 969
619 756 128
620 252 842
621 123 311
622 90 412
623 404 744
624 216 14
625 906 567
626 15 55
627 719 567
628 948 717
629 614 496
630 564 906
631 179 656
632 774 462
633 207 724
634 355 609
635 344 833
636 726 657
637 971 896
638 958 954
639 351 186
640 39 94
641 18 167
642 396 368
643 416 570
644 653 463
645 792 716
646 649 420
647 332 103
648 707 838
649 561 229
650 144 320
651 971 672
652 44 186
653 924 415
654 267 418
655 782 427
656 715 867
657 306 493
658 853 704
659 293 285
660 468 127
661 464 700
662 692 310
663 610 428
664 257 608
665 980 789
666 25 7
667 918 803
668 740 837
669 762 527
670 50 710
671 978 624
672 775 736
673 551 199
674 416 970
675 630 871
676 926 116
677 413 103
678 724 481
679 293 786
680 959 178
681 244 56
682 28 579
683 465 381
684 342 15
685 267 887
686 339 737
687 219 933
688 750 110
689 533 943
690 116 72
691 708 481
692 556 836
693 421 584
694 777 841
695 664 334
696 340 957
697 138 690
698 185 939
699 895 564
700 384 127
701 221 151
702 164 405
703 788 509
704 171 394
705 33 379
706 987 917
707 810 274
708 892 692
709 267 798
710 881 293
711 1 227
712 935 348
713 441 344
714 527 995
715 487 506
716 395 580
717 405 978
718 557 620
719 966 509
720 571 996
721 835 166
722 57 410
723 214 405
724 462 92
725 734 399
726 69 747
727 589 624
728 272 760
729 936 678
730 84 652
731 525 364
732 908 779
733 600 19
734 548 288
735 33 90
736 479 319
737 717 960
738 360 458
739 204 29
740 799 441
741 602 46
742 372 106
743 707 678
744 884 598
745 401 345
746 889 818
747 288 295
748 453 130
749 587 936
750 169 316
751 271 407
752 428 772
753 461 415
754 926 968
755 61 305
756 435 146
757 653 395
758 820 279
759 637 547
760 302 267
761 620 2
762 973 397
763 58 455
764 561 40
765 147 381
766 452 610
767 963 618
768 948 761
769 850 189
770 785 845
771 65 388
772 900 613
773 668 101
774 445 170
775 660 387
776 57 176
777 373 307
778 365 297
779 117 1000
780 765 916
781 62 12
782 428 75
783 387 877
PICKUP_AND_DELIVERY_SECTION
1 0 0 1000000000 0 0 0
2 0 0 1000000000 0 0 85
3 0 0 1000000000 0 34 0
4 0 0 1000000000 0 0 47
5 0 0 1000000000 0 49 0
6 0 0 1000000000 0 0 75
7 0 0 1000000000 0 87 0
8 0 0 1000000000 0 0 13
9 0 0 1000000000 0 92 0
10 0 0 1000000000 0 0 85
11 0 0 1000000000 0 3 0
12 0 0 1000000000 0 0 18
13 0 0 1000000000 0 87 0
14 0 0 1000000000 0 0 96
15 0 0 1000000000 0 72 0
16 0 0 1000000000 0 0 38
17 0 0 1000000000 0 5 0
18 0 0 1000000000 0 0 59
19 0 0 1000000000 0 75 0
20 0 0 1000000000 0 0 81
21 0 0 1000000000 0 68 0
22 0 0 1000000000 0 0 99
23 0 0 1000000000 0 66 0
24 0 0 1000000000 0 0 67
25 0 0 1000000000 0 33 0
26 0 0 1000000000 0 0 30
27 0 0 1000000000 0 73 0
28 0 0 1000000000 0 0 61
29 0 0 1000000000 0 18 0
30 0 0 1000000000 0 0 37
31 0 0 1000000000 0 81 0
32 0 0 1000000000 0 0 36
33 0 0 1000000000 0 17 0
34 0 0 1000000000 0 0 31
35 0 0 1000000000 0 25 0
36 0 0 1000000000 0 0 85
37 0 0 1000000000 0 12 0
38 0 0 1000000000 0 0 44
39 0 0 1000000000 0 60 0
40 0 0 1000000000 0 0 5
41 0 0 1000000000 0 23 0
42 0 0 1000000000 0 0 58
43 0 0 1000000000 0 29 0
44 0 0 1000000000 0 0 9
45 0 0 1000000000 0 13 0
46 0 0 1000000000 0 0 1
47 0 0 1000000000 0 100 0
48 0 0 1000000000 0 0 88
49 0 0 1000000000 0 53 0
50 0 0 1000000000 0 0 30
51 0 0 1000000000 0 66 0
52 0 0 1000000000 0 0 47
53 0 0 1000000000 0 35 0
54 0 0 1000000000 0 0 55
55 0 0 1000000000 0 83 0
56 0 0 1000000000 0 0 20
57 0 0 1000000000 0 84 0
58 0 0 1000000000 0 0 36
59 0 0 1000000000 0 50 0
60 0 0 1000000000 0 0 76
61 0 0 1000000000 0 70 0
62 0 0 1000000000 0 0 80
63 0 0 1000000000 0 79 0
64 0 0 1000000000 0 0 44
65 0 0 1000000000 0 26 0
66 0 0 1000000000 0 0 60
67 0 0 1000000000 0 80 0
68 0 0 1000000000 0 0 40
69 0 0 1000000000 0 60 0
70 0 0 1000000000 0 0 46
71 0 0 1000000000 0 62 0
72 0 0 1000000000 0 0 50
73 0 0 1000000000 0 32 0
74 0 0 1000000000 0 0 18
75 0 0 1000000000 0 3 0
76 0 0 1000000000 0 0 16
77 0 0 1000000000 0 30 0
78 0 0 1000000000 0 0 4
79 0 0 1000000000 0 68 0
80 0 0 1000000000 0 0 6
81 0 0 1000000000 0 34 0
82 0 0 1000000000 0 0 93
83 0 0 1000000000 0 58 0
84 0 0 1000000000 0 0 10
85 0 0 1000000000 0 45 0
86 0 0 1000000000 0 0 27
87 0 0 1000000000 0 90 0
88 0 0 1000000000 0 0 77
89 0 0 1000000000 0 98 0
90 0 0 1000000000 0 0 40
91 0 0 1000000000 0 41 0
92 0 0 1000000000 0 0 30
93 0 0 1000000000 0 58 0
94 0 0 1000000000 0 0 63
95 0 0 1000000000 0 78 0
96 0 0 1000000000 0 0 67
97 0 0 1000000000 0 51 0
98 0 0 1000000000 0 0 32
99 0 0 1000000000 0 25 0
100 0 0 1000000000 0 0 26
101 0 0 1000000000 0 25 0
102 0 0 1000000000 0 0 25
103 0 0 1000000000 0 67 0
104 0 0 1000000000 0 0 99
105 0 0 1000000000 0 41 0
106 0 0 1000000000 0 0 66
107 0 0 1000000000 0 47 0
108 0 0 1000000000 0 0 86
109 0 0 1000000000 0 18 0
110 0 0 1000000000 0 0 19
111 0 0 1000000000 0 85 0
112 0 0 1000000000 0 0 23
113 0 0 1000000000 0 14 0
114 0 0 1000000000 0 0 79
115 0 0 1000000000 0 48 0
116 0 0 1000000000 0 0 93
117 0 0 1000000000 0 9 0
118 0 0 1000000000 0 0 80
119 0 0 1000000000 0 34 0
120 0 0 1000000000 0 0 19
121 0 0 1000000000 0 79 0
122 0 0 1000000000 0 0 21
123 0 0 1000000000 0 20 0
124 0 0 1000000000 0 0 44
125 0 0 1000000000 0 24 0
126 0 0 1000000000 0 0 60
127 0 0 1000000000 0 14 0
128 0 0 1000000000 0 0 87
129 0 0 1000000000 0 88 0
130 0 0 1000000000 0 0 23
131 0 0 1000000000 0 29 0
132 0 0 1000000000 0 0 12
133 0 0 1000000000 0 61 0
134 0 0 1000000000 0 0 90
135 0 0 1000000000 0 12 0
136 0 0 1000000000 0 0 84
137 0 0 1000000000 0 20 0
138 0 0 1000000000 0 0 85
139 0 0 1000000000 0 68 0
140 0 0 1000000000 0 0 60
141 0 0 1000000000 0 21 0
142 0 0 1000000000 0 0 53
143 0 0 1000000000 0 29 0
144 0 0 1000000000 0 0 67
145 0 0 1000000000 0 84 0
146 0 0 1000000000 0 0 86
147 0 0 1000000000 0 86 0
148 0 0 1000000000 0 0 60
149 0 0 1000000000 0 2 0
150 0 0 1000000000 0 0 64
151 0 0 1000000000 0 77 0
152 0 0 1000000000 0 0 10
153 0 0 1000000000 0 85 0
154 0 0 1000000000 0 0 81
155 0 0 1000000000 0 92 0
156 0 0 1000000000 0 0 93
157 0 0 1000000000 0 12 0
158 0 0 1000000000 0 0 63
159 0 0 1000000000 0 79 0
160 0 0 1000000000 0 0 97
161 0 0 1000000000 0 41 0
162 0 0 1000000000 0 0 50
163 0 0 1000000000 0 70 0
164 0 0 1000000000 0 0 39
165 0 0 1000000000 0 21 0
166 0 0 1000000000 0 0 40
167 0 0 1000000000 0 99 0
168 0 0 1000000000 0 0 29
169 0 0 1000000000 0 21 0
170 0 0 1000000000 0 0 46
171 0 0 1000000000 0 96 0
172 0 0 1000000000 0 0 38
173 0 0 1000000000 0 48 0
174 0 0 1000000000 0 0 24
175 0 0 1000000000 0 89 0
176 0 0 1000000000 0 0 12
177 0 0 1000000000 0 96 0
178 0 0 1000000000 0 0 41
179 0 0 1000000000 0 62 0
180 0 0 1000000000 0 0 57
181 0 0 1000000000 0 5 0
182 0 0 1000000000 0 0 60
183 0 0 1000000000 0 5 0
184 0 0 1000000000 0 0 72
185 0 0 1000000000 0 35 0
186 0 0 1000000000 0 0 6
187 0 0 1000000000 0 6 0
188 0 0 1000000000 0 0 51
189 0 0 1000000000 0 52 0
190 0 0 1000000000 0 0 77
191 0 0 1000000000 0 59 0
192 0 0 1000000000 0 0 17
193 0 0 1000000000 0 78 0
194 0 0 1000000000 0 0 60
195 0 0 1000000000 0 23 0
196 0 0 1000000000 0 0 24
197 0 0 1000000000 0 92 0
198 0 0 1000000000 0 0 60
199 0 0 1000000000 0 99 0
200 0 0 1000000000 0 0 79
201 0 0 1000000000 0 37 0
202 0 0 1000000000 0 0 66
203 0 0 1000000000 0 1 0
204 0 0 1000000000 0 0 44
205 0 0 1000000000 0 29 0
206 0 0 1000000000 0 0 2
207 0 0 1000000000 0 38 0
208 0 0 1000000000 0 0 65
209 0 0 1000000000 0 11 0
210 0 0 1000000000 0 0 72
211 0 0 1000000000 0 50 0
212 0 0 1000000000 0 0 46
213 0 0 1000000000 0 7 0
214 0 0 1000000000 0 0 96
215 0 0 1000000000 0 79 0
216 0 0 1000000000 0 0 78
217 0 0 1000000000 0 17 0
218 0 0 1000000000 0 0 53
219 0 0 1000000000 0 21 0
220 0 0 1000000000 0 0 30
221 0 0 1000000000 0 47 0
222 0 0 1000000000 0 0 62
223 0 0 1000000000 0 62 0
224 0 0 1000000000 0 0 59
225 0 0 1000000000 0 81 0
226 0 0 1000000000 0 0 25
227 0 0 1000000000 0 20 0
228 0 0 1000000000 0 0 55
229 0 0 1000000000 0 19 0
230 0 0 1000000000 0 0 54
231 0 0 1000000000 0 28 0
232 0 0 1000000000 0 0 12
233 0 0 1000000000 0 61 0
234 0 0 1000000000 0 0 100
235 0 0 1000000000 0 46 0
236 0 0 1000000000 0 0 41
237 0 0 1000000000 0 96 0
238 0 0 1000000000 0 0 58
239 0 0 1000000000 0 56 0
240 0 0 1000000000 0 0 71
241 0 0 1000000000 0 51 0
242 0 0 1000000000 0 0 78
243 0 0 1000000000 0 72 0
244 0 0 1000000000 0 0 18
245 0 0 1000000000 0 7 0
246 0 0 1000000000 0 0 79
247 0 0 1000000000 0 90 0
248 0 0 1000000000 0 0 74
249 0 0 1000000000 0 82 0
250 0 0 1000000000 0 0 85
251 0 0 1000000000 0 100 0
252 0 0 1000000000 0 0 29
253 0 0 1000000000 0 98 0
254 0 0 1000000000 0 0 99
255 0 0 1000000000 0 5 0
256 0 0 1000000000 0 0 72
257 0 0 1000000000 0 9 0
258 0 0 1000000000 0 0 92
259 0 0 1000000000 0 48 0
260 0 0 1000000000 0 0 2
261 0 0 1000000000 0 27 0
262 0 0 1000000000 0 0 57
263 0 0 1000000000 0 54 0
264 0 0 1000000000 0 0 96
265 0 0 1000000000 0 70 0
266 0 0 1000000000 0 0 64
267 0 0 1000000000 0 27 0
268 0 0 1000000000 0 0 14
269 0 0 1000000000 0 95 0
270 0 0 1000000000 0 0 55
271 0 0 1000000000 0 89 0
272 0 0 1000000000 0 0 86
273 0 0 1000000000 0 36 0
274 0 0 1000000000 0 0 18
275 0 0 1000000000 0 7 0
276 0 0 1000000000 0 0 91
277 0 0 1000000000 0 66 0
278 0 0 1000000000 0 0 20
279 0 0 1000000000 0 49 0
280 0 0 1000000000 0 0 11
281 0 0 1000000000 0 57 0
282 0 0 1000000000 0 0 100
283 0 0 1000000000 0 33 0
284 0 0 1000000000 0 0 31
285 0 0 1000000000 0 65 0
286 0 0 1000000000 0 0 33
287 0 0 1000000000 0 80 0
288 0 0 1000000000 0 0 27
289 0 0 1000000000 0 77 0
290 0 0 1000000000 0 0 49
291 0 0 1000000000 0 46 0
292 0 0 1000000000 0 0 86
293 0 0 1000000000 0 28 0
294 0 0 1000000000 0 0 51
295 0 0 1000000000 0 32 0
296 0 0 1000000000 0 0 66
297 0 0 1000000000 0 94 0
298 0 0 1000000000 0 0 80
299 0 0 1000000000 0 60 0
300 0 0 1000000000 0 0 62
301 0 0 1000000000 0 17 0
302 0 0 1000000000 0 0 86
303 0 0 1000000000 0 33 0
304 0 0 1000000000 0 0 16
305 0 0 1000000000 0 94 0
306 0 0 1000000000 0 0 54
307 0 0 1000000000 0 21 0
308 0 0 1000000000 0 0 55
309 0 0 1000000000 0 53 0
310 0 0 1000000000 0 0 85
311 0 0 1000000000 0 93 0
312 0 0 1000000000 0 0 32
313 0 0 1000000000 0 24 0
314 0 0 1000000000 0 0 81
315 0 0 1000000000 0 72 0
316 0 0 1000000000 0 0 49
317 0 0 1000000000 0 3 0
318 0 0 1000000000 0 0 75
319 0 0 1000000000 0 57 0
320 0 0 1000000000 0 0 21
321 0 0 1000000000 0 3 0
322 0 0 1000000000 0 0 18
323 0 0 1000000000 0 98 0
324 0 0 1000000000 0 0 32
325 0 0 1000000000 0 11 0
326 0 0 1000000000 0 0 78
327 0 0 1000000000 0 2 0
328 0 0 1000000000 0 0 36
329 0 0 1000000000 0 9 0
330 0 0 1000000000 0 0 75
331 0 0 1000000000 0 81 0
332 0 0 1000000000 0 0 32
333 0 0 1000000000 0 15 0
334 0 0 1000000000 0 0 40
335 0 0 1000000000 0 79 0
336 0 0 1000000000 0 0 84
337 0 0 1000000000 0 23 0
338 0 0 1000000000 0 0 87
339 0 0 1000000000 0 73 0
340 0 0 1000000000 0 0 10
341 0 0 1000000000 0 1 0
342 0 0 1000000000 0 0 7
343 0 0 1000000000 0 51 0
344 0 0 1000000000 0 0 57
345 0 0 1000000000 0 14 0
346 0 0 1000000000 0 0 33
347 0 0 1000000000 0 90 0
348 0 0 1000000000 0 0 87
349 0 0 1000000000 0 75 0
350 0 0 1000000000 0 0 41
351 0 0 1000000000 0 32 0
352 0 0 1000000000 0 0 89
353 0 0 1000000000 0 49 0
354 0 0 1000000000 0 0 17
355 0 0 1000000000 0 37 0
356 0 0 1000000000 0 0 41
357 0 0 1000000000 0 38 0
358 0 0 1000000000 0 0 77
359 0 0 1000000000 0 6 0
360 0 0 1000000000 0 0 54
361 0 0 1000000000 0 75 0
362 0 0 1000000000 0 0 60
363 0 0 1000000000 0 34 0
364 0 0 1000000000 0 0 12
365 0 0 1000000000 0 28 0
366 0 0 1000000000 0 0 60
367 0 0 1000000000 0 52 0
368 0 0 1000000000 0 0 49
369 0 0 1000000000 0 72 0
370 0 0 1000000000 0 0 55
371 0 0 1000000000 0 65 0
372 0 0 1000000000 0 0 84
373 0 0 1000000000 0 47 0
374 0 0 1000000000 0 0 98
375 0 0 1000000000 0 53 0
376 0 0 1000000000 0 0 23
377 0 0 1000000000 0 6 0
378 0 0 1000000000 0 0 65
379 0 0 1000000000 0 42 0
380 0 0 1000000000 0 0 64
381 0 0 1000000000 0 51 0
382 0 0 1000000000 0 0 53
383 0 0 1000000000 0 79 0
384 0 0 1000000000 0 0 63
385 0 0 1000000000 0 29 0
386 0 0 1000000000 0 0 32
387 0 0 1000000000 0 14 0
388 0 0 1000000000 0 0 94
389 0 0 1000000000 0 29 0
390 0 0 1000000000 0 0 11
391 0 0 1000000000 0 77 0
392 0 0 1000000000 0 0 92
393 0 0 1000000000 0 33 0
394 0 0 1000000000 0 0 2
395 0 0 1000000000 0 4 0
396 0 0 1000000000 0 0 15
397 0 0 1000000000 0 64 0
398 0 0 1000000000 0 0 32
399 0 0 1000000000 0 4 0
400 0 0 1000000000 0 0 16
401 0 0 1000000000 0 13 0
402 0 0 1000000000 0 0 12
403 0 0 1000000000 0 46 0
404 0 0 1000000000 0 0 57
405 0 0 1000000000 0 48 0
406 0 0 1000000000 0 0 97
407 0 0 1000000000 0 80 0
408 0 0 1000000000 0 0 61
409 0 0 1000000000 0 59 0
410 0 0 1000000000 0 0 15
411 0 0 1000000000 0 6 0
412 0 0 1000000000 0 0 80
413 0 0 1000000000 0 99 0
414 0 0 1000000000 0 0 81
415 0 0 1000000000 0 39 0
416 0 0 1000000000 0 0 55
417 0 0 1000000000 0 3 0
418 0 0 1000000000 0 0 92
419 0 0 1000000000 0 21 0
420 0 0 1000000000 0 0 13
421 0 0 1000000000 0 69 0
422 0 0 1000000000 0 0 86
423 0 0 1000000000 0 64 0
424 0 0 1000000000 0 0 26
425 0 0 1000000000 0 54 0
426 0 0 1000000000 0 0 50
427 0 0 1000000000 0 84 0
428 0 0 1000000000 0 0 16
429 0 0 1000000000 0 14 0
430 0 0 1000000000 0 0 56
431 0 0 1000000000 0 19 0
432 0 0 1000000000 0 0 55
433 0 0 1000000000 0 46 0
434 0 0 1000000000 0 0 15
435 0 0 1000000000 0 39 0
436 0 0 1000000000 0 0 98
437 0 0 1000000000 0 52 0
438 0 0 1000000000 0 0 33
439 0 0 1000000000 0 62 0
440 0 0 1000000000 0 0 16
441 0 0 1000000000 0 62 0
442 0 0 1000000000 0 0 3
443 0 0 1000000000 0 5 0
444 0 0 1000000000 0 0 86
445 0 0 1000000000 0 42 0
446 0 0 1000000000 0 0 21
447 0 0 1000000000 0 13 0
448 0 0 1000000000 0 0 94
449 0 0 1000000000 0 19 0
450 0 0 1000000000 0 0 61
451 0 0 1000000000 0 27 0
452 0 0 1000000000 0 0 69
453 0 0 1000000000 0 90 0
454 0 0 1000000000 0 0 60
455 0 0 1000000000 0 46 0
456 0 0 1000000000 0 0 69
457 0 0 1000000000 0 12 0
458 0 0 1000000000 0 0 47
459 0 0 1000000000 0 89 0
460 0 0 1000000000 0 0 12
461 0 0 1000000000 0 71 0
462 0 0 1000000000 0 0 44
463 0 0 1000000000 0 73 0
464 0 0 1000000000 0 0 31
465 0 0 1000000000 0 33 0
466 0 0 1000000000 0 0 27
467 0 0 1000000000 0 30 0
468 0 0 1000000000 0 0 58
469 0 0 1000000000 0 19 0
470 0 0 1000000000 0 0 7
471 0 0 1000000000 0 30 0
472 0 0 1000000000 0 0 13
473 0 0 1000000000 0 82 0
474 0 0 1000000000 0 0 66
475 0 0 1000000000 0 32 0
476 0 0 1000000000 0 0 40
477 0 0 1000000000 0 41 0
478 0 0 1000000000 0 0 19
479 0 0 1000000000 0 19 0
480 0 0 1000000000 0 0 2
481 0 0 1000000000 0 72 0
482 0 0 1000000000 0 0 75
483 0 0 1000000000 0 37 0
484 0 0 1000000000 0 0 4
485 0 0 1000000000 0 18 0
486 0 0 1000000000 0 0 54
487 0 0 1000000000 0 10 0
488 0 0 1000000000 0 0 93
489 0 0 1000000000 0 59 0
490 0 0 1000000000 0 0 27
491 0 0 1000000000 0 95 0
492 0 0 1000000000 0 0 96
493 0 0 1000000000 0 34 0
494 0 0 1000000000 0 0 26
495 0 0 1000000000 0 58 0
496 0 0 1000000000 0 0 79
497 0 0 1000000000 0 30 0
498 0 0 1000000000 0 0 69
499 0 0 1000000000 0 37 0
500 0 0 1000000000 0 0 35
501 0 0 1000000000 0 83 0
502 0 0 1000000000 0 0 81
503 0 0 1000000000 0 76 0
504 0 0 1000000000 0 0 55
505 0 0 1000000000 0 90 0
506 0 0 1000000000 0 0 2
507 0 0 1000000000 0 45 0
508 0 0 1000000000 0 0 50
509 0 0 1000000000 0 64 0
510 0 0 1000000000 0 0 42
511 0 0 1000000000 0 85 0
512 0 0 1000000000 0 0 58
513 0 0 1000000000 0 44 0
514 0 0 1000000000 0 0 8
515 0 0 1000000000 0 54 0
516 0 0 1000000000 0 0 88
517 0 0 1000000000 0 48 0
518 0 0 1000000000 0 0 31
519 0 0 1000000000 0 99 0
520 0 0 1000000000 0 0 87
521 0 0 1000000000 0 61 0
522 0 0 1000000000 0 0 77
523 0 0 1000000000 0 1 0
524 0 0 1000000000 0 0 56
525 0 0 1000000000 0 49 0
526 0 0 1000000000 0 0 21
527 0 0 1000000000 0 53 0
528 0 0 1000000000 0 0 65
529 0 0 1000000000 0 98 0
530 0 0 1000000000 0 0 82
531 0 0 1000000000 0 70 0
532 0 0 1000000000 0 0 36
533 0 0 1000000000 0 73 0
534 0 0 1000000000 0 0 5
535 0 0 1000000000 0 17 0
536 0 0 1000000000 0 0 23
537 0 0 1000000000 0 13 0
538 0 0 1000000000 0 0 15
539 0 0 1000000000 0 1 0
540 0 0 1000000000 0 0 39
541 0 0 1000000000 0 70 0
542 0 0 1000000000 0 0 32
543 0 0 1000000000 0 54 0
544 0 0 1000000000 0 0 43
545 0 0 1000000000 0 44 0
546 0 0 1000000000 0 0 80
547 0 0 1000000000 0 14 0
548 0 0 1000000000 0 0 46
549 0 0 1000000000 0 70 0
550 0 0 1000000000 0 0 55
551 0 0 1000000000 0 55 0
552 0 0 1000000000 0 0 12
553 0 0 1000000000 0 89 0
554 0 0 1000000000 0 0 88
555 0 0 1000000000 0 26 0
556 0 0 1000000000 0 0 15
557 0 0 1000000000 0 66 0
558 0 0 1000000000 0 0 61
559 0 0 1000000000 0 70 0
560 0 0 1000000000 0 0 23
561 0 0 1000000000 0 20 0
562 0 0 1000000000 0 0 86
563 0 0 1000000000 0 29 0
564 0 0 1000000000 0 0 84
565 0 0 1000000000 0 66 0
566 0 0 1000000000 0 0 73
567 0 0 1000000000 0 7 0
568 0 0 1000000000 0 0 54
569 0 0 1000000000 0 16 0
570 0 0 1000000000 0 0 97
571 0 0 1000000000 0 61 0
572 0 0 1000000000 0 0 59
573 0 0 1000000000 0 18 0
574 0 0 1000000000 0 0 40
575 0 0 1000000000 0 62 0
576 0 0 1000000000 0 0 58
577 0 0 1000000000 0 69 0
578 0 0 1000000000 0 0 60
579 0 0 1000000000 0 50 0
580 0 0 1000000000 0 0 30
581 0 0 1000000000 0 9 0
582 0 0 1000000000 0 0 52
583 0 0 1000000000 0 34 0
584 0 0 1000000000 0 0 26
585 0 0 1000000000 0 70 0
586 0 0 1000000000 0 0 85
587 0 0 1000000000 0 21 0
588 0 0 1000000000 0 0 75
589 0 0 1000000000 0 49 0
590 0 0 1000000000 0 0 42
591 0 0 1000000000 0 89 0
592 0 0 1000000000 0 0 52
593 0 0 1000000000 0 35 0
594 0 0 1000000000 0 0 48
595 0 0 1000000000 0 46 0
596 0 0 1000000000 0 0 32
597 0 0 1000000000 0 75 0
598 0 0 1000000000 0 0 69
599 0 0 1000000000 0 1 0
600 0 0 1000000000 0 0 22
601 0 0 1000000000 0 31 0
602 0 0 1000000000 0 0 21
603 0 0 1000000000 0 45 0
604 0 0 1000000000 0 0 58
605 0 0 1000000000 0 35 0
606 0 0 1000000000 0 0 57
607 0 0 1000000000 0 86 0
608 0 0 1000000000 0 0 11
609 0 0 1000000000 0 53 0
610 0 0 1000000000 0 0 100
611 0 0 1000000000 0 23 0
612 0 0 1000000000 0 0 30
613 0 0 1000000000 0 71 0
614 0 0 1000000000 0 0 16
615 0 0 1000000000 0 73 0
616 0 0 1000000000 0 0 24
617 0 0 1000000000 0 32 0
618 0 0 1000000000 0 0 61
619 0 0 1000000000 0 32 0
620 0 0 1000000000 0 0 49
621 0 0 1000000000 0 53 0
622 0 0 1000000000 0 0 55
623 0 0 1000000000 0 16 0
624 0 0 1000000000 0 0 94
625 0 0 1000000000 0 69 0
626 0 0 1000000000 0 0 94
627 0 0 1000000000 0 75 0
628 0 0 1000000000 0 0 72
629 0 0 1000000000 0 31 0
630 0 0 1000000000 0 0 63
631 0 0 1000000000 0 30 0
632 0 0 1000000000 0 0 5
633 0 0 1000000000 0 25 0
634 0 0 1000000000 0 0 18
635 0 0 1000000000 0 25 0
636 0 0 1000000000 0 0 62
637 0 0 1000000000 0 98 0
638 0 0 1000000000 0 0 52
639 0 0 1000000000 0 74 0
640 0 0 1000000000 0 0 89
641 0 0 1000000000 0 64 0
642 0 0 1000000000 0 0 53
643 0 0 1000000000 0 23 0
644 0 0 1000000000 0 0 36
645 0 0 1000000000 0 93 0
646 0 0 1000000000 0 0 39
647 0 0 1000000000 0 84 0
648 0 0 1000000000 0 0 77
649 0 0 1000000000 0 42 0
650 0 0 1000000000 0 0 57
651 0 0 1000000000 0 51 0
652 0 0 1000000000 0 0 60
653 0 0 1000000000 0 8 0
654 0 0 1000000000 0 0 52
655 0 0 1000000000 0 37 0
656 0 0 1000000000 0 0 73
657 0 0 1000000000 0 85 0
658 0 0 1000000000 0 0 95
659 0 0 1000000000 0 86 0
660 0 0 1000000000 0 0 97
661 0 0 1000000000 0 38 0
662 0 0 1000000000 0 0 19
663 0 0 1000000000 0 4 0
664 0 0 1000000000 0 0 11
665 0 0 1000000000 0 81 0
666 0 0 1000000000 0 0 60
667 0 0 1000000000 0 84 0
668 0 0 1000000000 0 0 61
669 0 0 1000000000 0 96 0
670 0 0 1000000000 0 0 17
671 0 0 1000000000 0 97 0
672 0 0 1000000000 0 0 60
673 0 0 1000000000 0 33 0
674 0 0 1000000000 0 0 27
675 0 0 1000000000 0 69 0
676 0 0 1000000000 0 0 12
677 0 0 1000000000 0 72 0
678 0 0 1000000000 0 0 25
679 0 0 1000000000 0 33 0
680 0 0 1000000000 0 0 16
681 0 0 1000000000 0 94 0
682 0 0 1000000000 0 0 18
683 0 0 1000000000 0 89 0
684 0 0 1000000000 0 0 57
685 0 0 1000000000 0 32 0
686 0 0 1000000000 0 0 36
687 0 0 1000000000 0 16 0
688 0 0 1000000000 0 0 43
689 0 0 1000000000 0 77 0
690 0 0 1000000000 0 0 66
691 0 0 1000000000 0 11 0
692 0 0 1000000000 0 0 68
693 0 0 1000000000 0 19 0
694 0 0 1000000000 0 0 58
695 0 0 1000000000 0 44 0
696 0 0 1000000000 0 0 17
697 0 0 1000000000 0 17 0
698 0 0 1000000000 0 0 34
699 0 0 1000000000 0 80 0
700 0 0 1000000000 0 0 90
701 0 0 1000000000 0 78 0
702 0 0 1000000000 0 0 86
703 0 0 1000000000 0 88 0
704 0 0 1000000000 0 0 92
705 0 0 1000000000 0 63 0
706 0 0 1000000000 0 0 59
707 0 0 1000000000 0 46 0
708 0 0 1000000000 0 0 97
709 0 0 1000000000 0 15 0
710 0 0 1000000000 0 0 25
711 0 0 1000000000 0 78 0
712 0 0 1000000000 0 0 8
713 0 0 1000000000 0 96 0
714 0 0 1000000000 0 0 74
715 0 0 1000000000 0 31 0
716 0 0 1000000000 0 0 5
717 0 0 1000000000 0 5 0
718 0 0 1000000000 0 0 64
719 0 0 1000000000 0 62 0
720 0 0 1000000000 0 0 77
721 0 0 1000000000 0 19 0
722 0 0 1000000000 0 0 92
723 0 0 1000000000 0 74 0
724 0 0 1000000000 0 0 52
725 0 0 1000000000 0 11 0
726 0 0 1000000000 0 0 18
727 0 0 1000000000 0 51 0
728 0 0 1000000000 0 0 29
729 0 0 1000000000 0 85 0
730 0 0 1000000000 0 0 24
731 0 0 1000000000 0 28 0
732 0 0 1000000000 0 0 61
733 0 0 1000000000 0 33 0
734 0 0 1000000000 0 0 46
735 0 0 1000000000 0 78 0
736 0 0 1000000000 0 0 91
737 0 0 1000000000 0 74 0
738 0 0 1000000000 0 0 67
739 0 0 1000000000 0 85 0
740 0 0 1000000000 0 0 27
741 0 0 1000000000 0 6 0
742 0 0 1000000000 0 0 61
743 0 0 1000000000 0 69 0
744 0 0 1000000000 0 0 97
745 0 0 1000000000 0 53 0
746 0 0 1000000000 0 0 69
747 0 0 1000000000 0 63 0
748 0 0 1000000000 0 0 94
749 0 0 1000000000 0 51 0
750 0 0 1000000000 0 0 93
751 0 0 1000000000 0 63 0
752 0 0 1000000000 0 0 3
753 0 0 1000000000 0 71 0
754 0 0 1000000000 0 0 53
755 0 0 1000000000 0 75 0
756 0 0 1000000000 0 0 95
757 0 0 1000000000 0 8 0
758 0 0 1000000000 0 0 49
759 0 0 1000000000 0 95 0
760 0 0 1000000000 0 0 74
761 0 0 1000000000 0 31 0
762 0 0 1000000000 0 0 46
763 0 0 1000000000 0 54 0
764 0 0 1000000000 0 0 22
765 0 0 1000000000 0 64 0
766 0 0 1000000000 0 0 50
767 0 0 1000000000 0 71 0
768 0 0 1000000000 0 0 62
769 0 0 1000000000 0 14 0
770 0 0 1000000000 0 0 58
771 0 0 1000000000 0 92 0
772 0 0 1000000000 0 0 51
773 0 0 1000000000 0 6 0
774 0 0 1000000000 0 0 90
775 0 0 1000000000 0 35 0
776 0 0 1000000000 0 0 60
777 0 0 1000000000 0 90 0
778 0 0 1000000000 0 0 74
779 0 0 1000000000 0 8 0
780 0 0 1000000000 0 0 52
781 0 0 1000000000 0 60 0
782 0 0 1000000000 0 0 99
783 0 0 1000000000 0 40 0
